p tw 29 42
1 2
1 5
2 3
2 6
3 7
4 5
5 6
5 10
6 7
6 11
7 8
7 12
8 9
8 13
10 11
10 14
11 12
11 15
12 13
12 16
13 17
14 15
14 20
15 16
15 21
16 17
17 18
17 22
18 23
19 20
19 24
20 21
20 25
21 26
22 23
22 28
23 29
24 25
25 26
26 27
27 28
28 29
